db/data/312952857513419318612705127422499828719.z3.out
sat
-------------------
600.228684058
